
Gurobi 10.0.2 (win64) logging started Thu Jul 24 22:20:30 2025

Set parameter LogFile to value "gurobi_log.txt"

Gurobi 10.0.2 (win64) logging started Thu Jul 24 22:21:00 2025

Set parameter LogFile to value "gurobi_log.txt"
